66
1 0 15
2 0 1
2 1 1
3 0 16
3 1 15
3 2 3
4 0 15
4 1 6
4 2 3
4 3 6
5 0 8
5 1 16
5 2 11
5 3 2
5 4 16
6 0 10
6 1 5
6 2 4
6 3 4
6 4 10
6 5 17
7 0 13
7 1 4
7 2 4
7 3 9
7 4 7
7 5 18
7 6 8
8 0 11
8 1 4
8 2 12
8 3 7
8 4 14
8 5 13
8 6 8
8 7 1
9 0 12
9 1 7
9 2 17
9 3 3
9 4 6
9 5 12
9 6 12
9 7 11
9 8 7
10 0 16
10 1 17
10 2 12
10 3 13
10 4 8
10 5 9
10 6 2
10 7 18
10 8 18
10 9 2
11 0 18
11 1 4
11 2 11
11 3 18
11 4 13
11 5 18
11 6 7
11 7 15
11 8 3
11 9 1
11 10 7
12 0 8
12 1 1
12 2 13
12 3 13
12 4 9
12 5 17
12 6 7
12 7 7
12 8 6
12 9 1
12 10 13
12 11 3
13 0 15
13 1 14
13 2 7
13 3 18
13 4 13
13 5 11
13 6 7
13 7 11
13 8 5
13 9 6
13 10 10
13 11 10
13 12 10
14 0 14
14 1 7
14 2 9
14 3 16
14 4 13
14 5 4
14 6 13
14 7 16
14 8 2
14 9 7
14 10 4
14 11 10
14 12 11
14 13 12
15 0 10
15 1 4
15 2 1
15 3 6
15 4 9
15 5 13
15 6 6
15 7 14
15 8 10
15 9 3
15 10 14
15 11 6
15 12 1
15 13 9
15 14 7
16 0 5
16 1 13
16 2 16
16 3 15
16 4 2
16 5 1
16 6 13
16 7 15
16 8 7
16 9 9
16 10 7
16 11 12
16 12 13
16 13 8
16 14 11
16 15 2
17 0 14
17 1 4
17 2 13
17 3 9
17 4 2
17 5 15
17 6 14
17 7 5
17 8 17
17 9 6
17 10 3
17 11 3
17 12 15
17 13 9
17 14 6
17 15 13
17 16 8
18 0 14
18 1 5
18 2 15
18 3 12
18 4 5
18 5 3
18 6 5
18 7 16
18 8 8
18 9 11
18 10 14
18 11 11
18 12 14
18 13 10
18 14 14
18 15 14
18 16 15
18 17 14
19 0 12
19 1 3
19 2 4
19 3 7
19 4 5
19 5 3
19 6 8
19 7 15
19 8 15
19 9 8
19 10 6
19 11 2
19 12 6
19 13 9
19 14 16
19 15 2
19 16 16
19 17 13
19 18 10
20 0 8
20 1 8
20 2 7
20 3 4
20 4 14
20 5 12
20 6 8
20 7 18
20 8 10
20 9 16
20 10 18
20 11 5
20 12 16
20 13 14
20 14 13
20 15 2
20 16 17
20 17 1
20 18 15
20 19 5
21 0 17
21 1 5
21 2 9
21 3 3
21 4 18
21 5 11
21 6 18
21 7 1
21 8 15
21 9 13
21 10 1
21 11 16
21 12 4
21 13 9
21 14 13
21 15 2
21 16 3
21 17 15
21 18 5
21 19 9
21 20 16
22 0 16
22 1 14
22 2 16
22 3 1
22 4 9
22 5 1
22 6 12
22 7 12
22 8 3
22 9 12
22 10 18
22 11 18
22 12 9
22 13 13
22 14 14
22 15 14
22 16 17
22 17 13
22 18 13
22 19 10
22 20 18
22 21 7
23 0 6
23 1 10
23 2 18
23 3 14
23 4 4
23 5 3
23 6 14
23 7 9
23 8 13
23 9 17
23 10 16
23 11 10
23 12 5
23 13 9
23 14 17
23 15 5
23 16 5
23 17 12
23 18 18
23 19 5
23 20 16
23 21 1
23 22 14
24 0 2
24 1 1
24 2 13
24 3 1
24 4 6
24 5 18
24 6 6
24 7 15
24 8 4
24 9 5
24 10 14
24 11 3
24 12 6
24 13 18
24 14 3
24 15 2
24 16 16
24 17 13
24 18 4
24 19 2
24 20 15
24 21 2
24 22 13
24 23 9
25 0 6
25 1 1
25 2 13
25 3 7
25 4 4
25 5 14
25 6 11
25 7 10
25 8 3
25 9 12
25 10 10
25 11 7
25 12 7
25 13 2
25 14 16
25 15 5
25 16 16
25 17 16
25 18 7
25 19 5
25 20 5
25 21 14
25 22 9
25 23 6
25 24 7
26 0 7
26 1 17
26 2 4
26 3 14
26 4 6
26 5 5
26 6 2
26 7 18
26 8 16
26 9 5
26 10 2
26 11 17
26 12 6
26 13 10
26 14 9
26 15 9
26 16 7
26 17 7
26 18 12
26 19 6
26 20 16
26 21 8
26 22 7
26 23 8
26 24 12
26 25 17
27 0 5
27 1 2
27 2 15
27 3 5
27 4 13
27 5 5
27 6 18
27 7 5
27 8 13
27 9 9
27 10 12
27 11 17
27 12 8
27 13 8
27 14 5
27 15 5
27 16 17
27 17 10
27 18 12
27 19 18
27 20 2
27 21 14
27 22 9
27 23 11
27 24 3
27 25 6
27 26 18
28 0 15
28 1 18
28 2 9
28 3 11
28 4 1
28 5 16
28 6 1
28 7 2
28 8 7
28 9 5
28 10 14
28 11 9
28 12 1
28 13 7
28 14 13
28 15 18
28 16 5
28 17 14
28 18 12
28 19 9
28 20 2
28 21 10
28 22 16
28 23 12
28 24 5
28 25 1
28 26 14
28 27 5
29 0 13
29 1 18
29 2 3
29 3 10
29 4 4
29 5 16
29 6 2
29 7 15
29 8 3
29 9 6
29 10 17
29 11 8
29 12 6
29 13 15
29 14 18
29 15 17
29 16 13
29 17 14
29 18 12
29 19 12
29 20 13
29 21 16
29 22 16
29 23 1
29 24 9
29 25 7
29 26 7
29 27 4
29 28 14
30 0 12
30 1 1
30 2 4
30 3 5
30 4 16
30 5 2
30 6 8
30 7 2
30 8 7
30 9 15
30 10 15
30 11 9
30 12 7
30 13 3
30 14 2
30 15 2
30 16 7
30 17 2
30 18 18
30 19 3
30 20 7
30 21 4
30 22 2
30 23 11
30 24 14
30 25 15
30 26 1
30 27 9
30 28 10
30 29 14
31 0 17
31 1 15
31 2 3
31 3 4
31 4 12
31 5 17
31 6 3
31 7 16
31 8 11
31 9 4
31 10 9
31 11 7
31 12 17
31 13 1
31 14 2
31 15 10
31 16 18
31 17 4
31 18 15
31 19 17
31 20 3
31 21 16
31 22 8
31 23 10
31 24 1
31 25 14
31 26 1
31 27 6
31 28 12
31 29 4
31 30 16
32 0 5
32 1 7
32 2 13
32 3 3
32 4 6
32 5 18
32 6 1
32 7 8
32 8 12
32 9 12
32 10 6
32 11 13
32 12 14
32 13 14
32 14 6
32 15 1
32 16 3
32 17 6
32 18 9
32 19 17
32 20 1
32 21 8
32 22 10
32 23 14
32 24 1
32 25 18
32 26 13
32 27 4
32 28 9
32 29 9
32 30 15
32 31 9
33 0 8
33 1 7
33 2 11
33 3 5
33 4 7
33 5 5
33 6 18
33 7 18
33 8 13
33 9 3
33 10 7
33 11 17
33 12 4
33 13 11
33 14 9
33 15 14
33 16 5
33 17 16
33 18 16
33 19 4
33 20 10
33 21 8
33 22 4
33 23 14
33 24 9
33 25 11
33 26 8
33 27 2
33 28 9
33 29 1
33 30 11
33 31 3
33 32 15
34 0 12
34 1 5
34 2 1
34 3 13
34 4 7
34 5 10
34 6 1
34 7 11
34 8 1
34 9 2
34 10 6
34 11 14
34 12 13
34 13 18
34 14 3
34 15 9
34 16 5
34 17 14
34 18 17
34 19 1
34 20 18
34 21 17
34 22 9
34 23 13
34 24 5
34 25 5
34 26 7
34 27 8
34 28 2
34 29 10
34 30 14
34 31 6
34 32 1
34 33 1
35 0 15
35 1 4
35 2 11
35 3 8
35 4 4
35 5 16
35 6 18
35 7 4
35 8 7
35 9 10
35 10 16
35 11 13
35 12 15
35 13 3
35 14 13
35 15 8
35 16 14
35 17 12
35 18 9
35 19 18
35 20 17
35 21 8
35 22 3
35 23 15
35 24 16
35 25 6
35 26 1
35 27 10
35 28 11
35 29 10
35 30 1
35 31 16
35 32 17
35 33 18
35 34 2
36 0 10
36 1 18
36 2 2
36 3 18
36 4 18
36 5 10
36 6 7
36 7 14
36 8 13
36 9 12
36 10 16
36 11 1
36 12 1
36 13 18
36 14 12
36 15 6
36 16 7
36 17 16
36 18 8
36 19 18
36 20 18
36 21 18
36 22 17
36 23 7
36 24 2
36 25 16
36 26 4
36 27 1
36 28 3
36 29 4
36 30 11
36 31 2
36 32 9
36 33 2
36 34 12
36 35 10
37 0 10
37 1 10
37 2 1
37 3 6
37 4 3
37 5 1
37 6 17
37 7 8
37 8 16
37 9 5
37 10 12
37 11 4
37 12 5
37 13 17
37 14 6
37 15 5
37 16 13
37 17 1
37 18 14
37 19 18
37 20 5
37 21 3
37 22 14
37 23 18
37 24 11
37 25 3
37 26 13
37 27 8
37 28 17
37 29 16
37 30 15
37 31 3
37 32 8
37 33 15
37 34 14
37 35 2
37 36 7
38 0 9
38 1 6
38 2 10
38 3 14
38 4 9
38 5 7
38 6 13
38 7 8
38 8 18
38 9 7
38 10 11
38 11 18
38 12 16
38 13 16
38 14 15
38 15 15
38 16 10
38 17 7
38 18 10
38 19 1
38 20 12
38 21 18
38 22 17
38 23 18
38 24 13
38 25 7
38 26 15
38 27 15
38 28 15
38 29 8
38 30 16
38 31 10
38 32 13
38 33 16
38 34 3
38 35 9
38 36 13
38 37 10
39 0 10
39 1 4
39 2 14
39 3 11
39 4 6
39 5 12
39 6 1
39 7 17
39 8 18
39 9 12
39 10 7
39 11 15
39 12 11
39 13 11
39 14 4
39 15 3
39 16 14
39 17 14
39 18 8
39 19 17
39 20 5
39 21 18
39 22 10
39 23 6
39 24 13
39 25 15
39 26 7
39 27 16
39 28 8
39 29 3
39 30 6
39 31 14
39 32 18
39 33 15
39 34 2
39 35 8
39 36 15
39 37 9
39 38 7
40 0 16
40 1 6
40 2 4
40 3 9
40 4 9
40 5 12
40 6 7
40 7 6
40 8 15
40 9 1
40 10 9
40 11 15
40 12 8
40 13 9
40 14 14
40 15 17
40 16 2
40 17 16
40 18 17
40 19 5
40 20 2
40 21 6
40 22 10
40 23 7
40 24 10
40 25 7
40 26 14
40 27 8
40 28 16
40 29 15
40 30 15
40 31 3
40 32 2
40 33 14
40 34 1
40 35 9
40 36 1
40 37 6
40 38 9
40 39 2
41 0 6
41 1 17
41 2 5
41 3 14
41 4 5
41 5 3
41 6 1
41 7 3
41 8 14
41 9 12
41 10 9
41 11 16
41 12 14
41 13 3
41 14 15
41 15 3
41 16 4
41 17 9
41 18 17
41 19 2
41 20 5
41 21 17
41 22 16
41 23 16
41 24 1
41 25 16
41 26 15
41 27 8
41 28 11
41 29 9
41 30 16
41 31 7
41 32 16
41 33 5
41 34 3
41 35 17
41 36 4
41 37 16
41 38 14
41 39 5
41 40 8
42 0 3
42 1 10
42 2 12
42 3 6
42 4 12
42 5 8
42 6 9
42 7 12
42 8 15
42 9 12
42 10 17
42 11 4
42 12 17
42 13 4
42 14 7
42 15 9
42 16 16
42 17 6
42 18 3
42 19 9
42 20 3
42 21 5
42 22 5
42 23 1
42 24 18
42 25 15
42 26 2
42 27 3
42 28 15
42 29 18
42 30 4
42 31 5
42 32 13
42 33 13
42 34 9
42 35 9
42 36 15
42 37 2
42 38 5
42 39 5
42 40 4
42 41 8
43 0 7
43 1 8
43 2 7
43 3 16
43 4 6
43 5 3
43 6 12
43 7 2
43 8 8
43 9 5
43 10 5
43 11 18
43 12 12
43 13 3
43 14 5
43 15 13
43 16 6
43 17 4
43 18 16
43 19 9
43 20 13
43 21 11
43 22 2
43 23 17
43 24 2
43 25 18
43 26 18
43 27 11
43 28 12
43 29 2
43 30 1
43 31 14
43 32 3
43 33 15
43 34 15
43 35 6
43 36 10
43 37 13
43 38 9
43 39 14
43 40 14
43 41 7
43 42 11
44 0 2
44 1 9
44 2 14
44 3 7
44 4 15
44 5 15
44 6 9
44 7 7
44 8 2
44 9 5
44 10 7
44 11 17
44 12 9
44 13 9
44 14 12
44 15 8
44 16 16
44 17 12
44 18 8
44 19 13
44 20 6
44 21 12
44 22 4
44 23 4
44 24 6
44 25 11
44 26 11
44 27 1
44 28 11
44 29 8
44 30 7
44 31 18
44 32 1
44 33 4
44 34 16
44 35 10
44 36 11
44 37 17
44 38 1
44 39 2
44 40 3
44 41 13
44 42 12
44 43 5
45 0 16
45 1 4
45 2 3
45 3 11
45 4 12
45 5 9
45 6 15
45 7 3
45 8 12
45 9 2
45 10 7
45 11 8
45 12 12
45 13 3
45 14 3
45 15 7
45 16 8
45 17 5
45 18 13
45 19 14
45 20 11
45 21 1
45 22 14
45 23 15
45 24 17
45 25 13
45 26 13
45 27 2
45 28 14
45 29 14
45 30 18
45 31 18
45 32 12
45 33 17
45 34 1
45 35 11
45 36 11
45 37 17
45 38 1
45 39 1
45 40 2
45 41 4
45 42 14
45 43 11
45 44 5
46 0 5
46 1 7
46 2 12
46 3 15
46 4 11
46 5 7
46 6 18
46 7 2
46 8 14
46 9 12
46 10 5
46 11 18
46 12 8
46 13 4
46 14 13
46 15 8
46 16 5
46 17 11
46 18 18
46 19 9
46 20 15
46 21 11
46 22 14
46 23 2
46 24 14
46 25 1
46 26 8
46 27 15
46 28 10
46 29 12
46 30 12
46 31 3
46 32 13
46 33 12
46 34 4
46 35 13
46 36 3
46 37 7
46 38 2
46 39 14
46 40 11
46 41 18
46 42 7
46 43 1
46 44 12
46 45 15
47 0 6
47 1 4
47 2 9
47 3 5
47 4 13
47 5 15
47 6 16
47 7 12
47 8 15
47 9 5
47 10 6
47 11 13
47 12 17
47 13 11
47 14 16
47 15 16
47 16 7
47 17 1
47 18 15
47 19 1
47 20 4
47 21 7
47 22 3
47 23 1
47 24 5
47 25 3
47 26 1
47 27 2
47 28 10
47 29 10
47 30 3
47 31 8
47 32 10
47 33 7
47 34 15
47 35 3
47 36 13
47 37 2
47 38 7
47 39 13
47 40 7
47 41 14
47 42 10
47 43 13
47 44 4
47 45 14
47 46 9
48 0 16
48 1 4
48 2 10
48 3 7
48 4 17
48 5 2
48 6 9
48 7 13
48 8 7
48 9 12
48 10 14
48 11 2
48 12 3
48 13 8
48 14 18
48 15 15
48 16 6
48 17 12
48 18 12
48 19 17
48 20 15
48 21 15
48 22 7
48 23 3
48 24 11
48 25 5
48 26 11
48 27 14
48 28 13
48 29 10
48 30 2
48 31 14
48 32 7
48 33 10
48 34 1
48 35 5
48 36 16
48 37 14
48 38 15
48 39 7
48 40 11
48 41 1
48 42 1
48 43 13
48 44 4
48 45 6
48 46 12
48 47 6
49 0 6
49 1 1
49 2 12
49 3 7
49 4 1
49 5 11
49 6 7
49 7 6
49 8 12
49 9 4
49 10 6
49 11 17
49 12 1
49 13 17
49 14 14
49 15 11
49 16 10
49 17 16
49 18 8
49 19 18
49 20 16
49 21 2
49 22 6
49 23 11
49 24 8
49 25 18
49 26 5
49 27 3
49 28 14
49 29 12
49 30 15
49 31 9
49 32 7
49 33 11
49 34 4
49 35 16
49 36 12
49 37 17
49 38 8
49 39 7
49 40 5
49 41 16
49 42 13
49 43 17
49 44 11
49 45 13
49 46 4
49 47 12
49 48 14
50 0 10
50 1 2
50 2 15
50 3 14
50 4 8
50 5 15
50 6 14
50 7 13
50 8 9
50 9 8
50 10 7
50 11 3
50 12 6
50 13 7
50 14 13
50 15 13
50 16 5
50 17 3
50 18 12
50 19 13
50 20 2
50 21 4
50 22 14
50 23 4
50 24 9
50 25 13
50 26 5
50 27 16
50 28 17
50 29 1
50 30 16
50 31 9
50 32 18
50 33 16
50 34 7
50 35 9
50 36 15
50 37 3
50 38 2
50 39 6
50 40 3
50 41 3
50 42 10
50 43 1
50 44 2
50 45 15
50 46 6
50 47 10
50 48 1
50 49 2
51 0 18
51 1 2
51 2 11
51 3 15
51 4 3
51 5 2
51 6 6
51 7 8
51 8 2
51 9 13
51 10 14
51 11 17
51 12 13
51 13 6
51 14 5
51 15 18
51 16 18
51 17 1
51 18 10
51 19 17
51 20 14
51 21 7
51 22 14
51 23 13
51 24 7
51 25 8
51 26 1
51 27 6
51 28 17
51 29 6
51 30 17
51 31 9
51 32 11
51 33 12
51 34 3
51 35 13
51 36 18
51 37 15
51 38 14
51 39 17
51 40 17
51 41 8
51 42 15
51 43 13
51 44 17
51 45 13
51 46 2
51 47 14
51 48 2
51 49 18
51 50 10
52 0 9
52 1 6
52 2 14
52 3 12
52 4 13
52 5 10
52 6 15
52 7 1
52 8 7
52 9 1
52 10 2
52 11 15
52 12 7
52 13 1
52 14 16
52 15 7
52 16 6
52 17 15
52 18 15
52 19 2
52 20 3
52 21 1
52 22 9
52 23 13
52 24 15
52 25 11
52 26 3
52 27 15
52 28 15
52 29 10
52 30 15
52 31 12
52 32 15
52 33 1
52 34 4
52 35 2
52 36 3
52 37 3
52 38 14
52 39 16
52 40 16
52 41 5
52 42 18
52 43 7
52 44 10
52 45 18
52 46 1
52 47 2
52 48 6
52 49 12
52 50 12
52 51 12
53 0 17
53 1 12
53 2 10
53 3 4
53 4 14
53 5 11
53 6 13
53 7 8
53 8 14
53 9 7
53 10 11
53 11 5
53 12 7
53 13 12
53 14 5
53 15 11
53 16 8
53 17 17
53 18 16
53 19 2
53 20 18
53 21 15
53 22 14
53 23 18
53 24 2
53 25 15
53 26 17
53 27 13
53 28 6
53 29 10
53 30 5
53 31 7
53 32 14
53 33 9
53 34 6
53 35 18
53 36 11
53 37 6
53 38 4
53 39 17
53 40 1
53 41 12
53 42 16
53 43 10
53 44 3
53 45 6
53 46 2
53 47 11
53 48 18
53 49 17
53 50 18
53 51 18
53 52 17
54 0 14
54 1 13
54 2 11
54 3 13
54 4 17
54 5 18
54 6 14
54 7 15
54 8 15
54 9 9
54 10 3
54 11 16
54 12 4
54 13 9
54 14 13
54 15 2
54 16 12
54 17 2
54 18 2
54 19 1
54 20 6
54 21 12
54 22 14
54 23 8
54 24 6
54 25 8
54 26 9
54 27 7
54 28 14
54 29 11
54 30 5
54 31 4
54 32 14
54 33 15
54 34 13
54 35 4
54 36 3
54 37 15
54 38 2
54 39 1
54 40 9
54 41 9
54 42 4
54 43 16
54 44 12
54 45 11
54 46 13
54 47 10
54 48 11
54 49 4
54 50 10
54 51 1
54 52 10
54 53 7
55 0 1
55 1 12
55 2 7
55 3 8
55 4 8
55 5 3
55 6 18
55 7 5
55 8 7
55 9 3
55 10 3
55 11 7
55 12 3
55 13 15
55 14 4
55 15 10
55 16 8
55 17 2
55 18 15
55 19 16
55 20 9
55 21 18
55 22 9
55 23 18
55 24 2
55 25 11
55 26 14
55 27 16
55 28 4
55 29 13
55 30 16
55 31 12
55 32 8
55 33 11
55 34 1
55 35 12
55 36 8
55 37 14
55 38 11
55 39 3
55 40 16
55 41 18
55 42 8
55 43 3
55 44 5
55 45 14
55 46 17
55 47 5
55 48 14
55 49 9
55 50 10
55 51 12
55 52 4
55 53 11
55 54 8
56 0 12
56 1 8
56 2 5
56 3 9
56 4 12
56 5 17
56 6 11
56 7 18
56 8 6
56 9 7
56 10 18
56 11 3
56 12 17
56 13 16
56 14 8
56 15 6
56 16 1
56 17 15
56 18 14
56 19 16
56 20 1
56 21 6
56 22 6
56 23 18
56 24 9
56 25 14
56 26 8
56 27 7
56 28 1
56 29 2
56 30 9
56 31 12
56 32 5
56 33 2
56 34 16
56 35 10
56 36 7
56 37 11
56 38 9
56 39 13
56 40 3
56 41 6
56 42 11
56 43 3
56 44 6
56 45 18
56 46 3
56 47 6
56 48 7
56 49 7
56 50 4
56 51 10
56 52 3
56 53 2
56 54 12
56 55 1
57 0 8
57 1 2
57 2 8
57 3 8
57 4 4
57 5 17
57 6 11
57 7 6
57 8 17
57 9 9
57 10 14
57 11 8
57 12 17
57 13 16
57 14 12
57 15 15
57 16 3
57 17 15
57 18 17
57 19 11
57 20 16
57 21 1
57 22 8
57 23 1
57 24 17
57 25 18
57 26 12
57 27 2
57 28 12
57 29 17
57 30 15
57 31 3
57 32 10
57 33 17
57 34 7
57 35 11
57 36 13
57 37 14
57 38 15
57 39 17
57 40 2
57 41 11
57 42 10
57 43 13
57 44 4
57 45 3
57 46 13
57 47 5
57 48 17
57 49 4
57 50 9
57 51 11
57 52 13
57 53 3
57 54 8
57 55 6
57 56 18
58 0 15
58 1 17
58 2 18
58 3 14
58 4 12
58 5 13
58 6 7
58 7 16
58 8 6
58 9 6
58 10 16
58 11 13
58 12 10
58 13 4
58 14 12
58 15 13
58 16 9
58 17 9
58 18 10
58 19 1
58 20 9
58 21 8
58 22 7
58 23 2
58 24 16
58 25 4
58 26 17
58 27 16
58 28 4
58 29 12
58 30 1
58 31 16
58 32 6
58 33 7
58 34 15
58 35 8
58 36 9
58 37 13
58 38 17
58 39 6
58 40 10
58 41 12
58 42 16
58 43 9
58 44 7
58 45 8
58 46 15
58 47 13
58 48 10
58 49 1
58 50 17
58 51 4
58 52 10
58 53 11
58 54 13
58 55 14
58 56 11
58 57 16
59 0 16
59 1 2
59 2 11
59 3 17
59 4 6
59 5 6
59 6 7
59 7 9
59 8 17
59 9 9
59 10 14
59 11 15
59 12 17
59 13 7
59 14 11
59 15 10
59 16 5
59 17 16
59 18 1
59 19 5
59 20 5
59 21 6
59 22 17
59 23 4
59 24 5
59 25 1
59 26 5
59 27 3
59 28 2
59 29 15
59 30 4
59 31 11
59 32 6
59 33 18
59 34 10
59 35 7
59 36 3
59 37 17
59 38 1
59 39 2
59 40 11
59 41 9
59 42 2
59 43 10
59 44 6
59 45 4
59 46 11
59 47 7
59 48 18
59 49 10
59 50 5
59 51 16
59 52 16
59 53 14
59 54 18
59 55 15
59 56 13
59 57 12
59 58 5
60 0 17
60 1 3
60 2 11
60 3 13
60 4 18
60 5 4
60 6 12
60 7 7
60 8 5
60 9 9
60 10 8
60 11 11
60 12 3
60 13 13
60 14 8
60 15 3
60 16 14
60 17 13
60 18 5
60 19 2
60 20 3
60 21 17
60 22 12
60 23 4
60 24 4
60 25 13
60 26 3
60 27 11
60 28 3
60 29 10
60 30 12
60 31 2
60 32 9
60 33 15
60 34 14
60 35 14
60 36 16
60 37 1
60 38 13
60 39 4
60 40 14
60 41 2
60 42 9
60 43 4
60 44 12
60 45 15
60 46 1
60 47 10
60 48 10
60 49 11
60 50 10
60 51 10
60 52 15
60 53 1
60 54 15
60 55 16
60 56 13
60 57 15
60 58 9
60 59 16
61 0 2
61 1 12
61 2 1
61 3 15
61 4 5
61 5 8
61 6 9
61 7 6
61 8 8
61 9 5
61 10 7
61 11 2
61 12 4
61 13 8
61 14 6
61 15 6
61 16 10
61 17 17
61 18 4
61 19 13
61 20 5
61 21 14
61 22 3
61 23 15
61 24 17
61 25 18
61 26 2
61 27 9
61 28 2
61 29 4
61 30 9
61 31 1
61 32 17
61 33 16
61 34 6
61 35 4
61 36 3
61 37 10
61 38 17
61 39 11
61 40 16
61 41 10
61 42 1
61 43 10
61 44 14
61 45 11
61 46 2
61 47 15
61 48 11
61 49 11
61 50 6
61 51 3
61 52 6
61 53 13
61 54 9
61 55 6
61 56 11
61 57 9
61 58 14
61 59 18
61 60 12
62 0 12
62 1 11
62 2 8
62 3 2
62 4 7
62 5 3
62 6 8
62 7 15
62 8 2
62 9 10
62 10 18
62 11 9
62 12 7
62 13 7
62 14 15
62 15 4
62 16 2
62 17 8
62 18 14
62 19 6
62 20 9
62 21 17
62 22 12
62 23 2
62 24 3
62 25 17
62 26 14
62 27 9
62 28 10
62 29 9
62 30 4
62 31 11
62 32 12
62 33 12
62 34 6
62 35 9
62 36 2
62 37 7
62 38 5
62 39 4
62 40 14
62 41 15
62 42 18
62 43 8
62 44 6
62 45 4
62 46 11
62 47 3
62 48 3
62 49 11
62 50 10
62 51 17
62 52 13
62 53 13
62 54 17
62 55 16
62 56 4
62 57 1
62 58 6
62 59 11
62 60 3
62 61 14
63 0 10
63 1 9
63 2 7
63 3 4
63 4 14
63 5 16
63 6 5
63 7 1
63 8 8
63 9 11
63 10 10
63 11 2
63 12 18
63 13 14
63 14 9
63 15 9
63 16 3
63 17 13
63 18 17
63 19 4
63 20 7
63 21 5
63 22 7
63 23 7
63 24 1
63 25 16
63 26 1
63 27 1
63 28 18
63 29 5
63 30 8
63 31 5
63 32 5
63 33 16
63 34 10
63 35 17
63 36 17
63 37 4
63 38 12
63 39 1
63 40 4
63 41 13
63 42 1
63 43 13
63 44 8
63 45 6
63 46 17
63 47 1
63 48 13
63 49 10
63 50 5
63 51 3
63 52 15
63 53 10
63 54 13
63 55 10
63 56 10
63 57 15
63 58 1
63 59 3
63 60 5
63 61 18
63 62 4
64 0 11
64 1 15
64 2 3
64 3 5
64 4 1
64 5 5
64 6 7
64 7 17
64 8 5
64 9 14
64 10 6
64 11 17
64 12 10
64 13 6
64 14 11
64 15 3
64 16 12
64 17 3
64 18 13
64 19 14
64 20 12
64 21 1
64 22 7
64 23 15
64 24 13
64 25 5
64 26 5
64 27 10
64 28 3
64 29 5
64 30 7
64 31 6
64 32 2
64 33 9
64 34 12
64 35 2
64 36 12
64 37 3
64 38 18
64 39 6
64 40 5
64 41 9
64 42 4
64 43 7
64 44 7
64 45 10
64 46 10
64 47 3
64 48 14
64 49 2
64 50 8
64 51 7
64 52 18
64 53 3
64 54 14
64 55 15
64 56 4
64 57 5
64 58 2
64 59 15
64 60 10
64 61 8
64 62 3
64 63 3
65 0 17
65 1 7
65 2 10
65 3 13
65 4 4
65 5 3
65 6 8
65 7 15
65 8 7
65 9 9
65 10 5
65 11 5
65 12 7
65 13 9
65 14 13
65 15 8
65 16 11
65 17 9
65 18 7
65 19 13
65 20 11
65 21 15
65 22 14
65 23 7
65 24 16
65 25 14
65 26 15
65 27 15
65 28 6
65 29 10
65 30 14
65 31 15
65 32 15
65 33 7
65 34 8
65 35 3
65 36 1
65 37 12
65 38 16
65 39 10
65 40 12
65 41 17
65 42 4
65 43 17
65 44 6
65 45 4
65 46 17
65 47 14
65 48 18
65 49 18
65 50 3
65 51 13
65 52 13
65 53 11
65 54 13
65 55 1
65 56 4
65 57 18
65 58 3
65 59 9
65 60 15
65 61 9
65 62 13
65 63 15
65 64 18
